Academic license - for non-commercial use only
Optimize a model with 12 rows, 36 columns and 72 nonzeros
Model has 300 quadratic objective terms
Variable types: 0 continuous, 36 integer (0 binary)
Coefficient statistics:
  Matrix range     [1e+00, 1e+00]
  Objective range  [0e+00, 0e+00]
  QObjective range [4e+00, 2e+02]
  Bounds range     [1e+00, 1e+00]
  RHS range        [1e+00, 1e+00]
Found heuristic solution: objective 182.0000000
Presolve time: 0.00s
Presolved: 40 rows, 64 columns, 428 nonzeros
Variable types: 0 continuous, 64 integer (38 binary)

Root relaxation: objective 0.000000e+00, 22 iterations, 0.00 seconds

    Nodes    |    Current Node    |     Objective Bounds      |     Work
 Expl Unexpl |  Obj  Depth IntInf | Incumbent    BestBd   Gap | It/Node Time

     0     0    0.00000    0   14  182.00000    0.00000   100%     -    0s
H    0     0                     154.0000000    0.00000   100%     -    0s
H    0     0                     150.0000000    0.00000   100%     -    0s
H    0     0                     148.0000000    0.00000   100%     -    0s
H    0     0                     128.0000000    0.00000   100%     -    0s
     0     0    0.00000    0   14  128.00000    0.00000   100%     -    0s
H    0     0                     108.0000000    0.00000   100%     -    0s
     0     0    0.00000    0   15  108.00000    0.00000   100%     -    0s
     0     0    0.00000    0   15  108.00000    0.00000   100%     -    0s
H    0     0                     104.0000000    0.00000   100%     -    0s
H    0     0                     102.0000000    0.00000   100%     -    0s
H    0     0                     100.0000000    0.00000   100%     -    0s
     0     0    0.00000    0   14  100.00000    0.00000   100%     -    0s
     0     0    0.00000    0   17  100.00000    0.00000   100%     -    0s
H    0     0                      98.0000000    0.00000   100%     -    0s
     0     0    0.00000    0   15   98.00000    0.00000   100%     -    0s
     0     0    0.00000    0   15   98.00000    0.00000   100%     -    0s
     0     2    0.00000    0   15   98.00000    0.00000   100%     -    0s
H   37    39                      94.0000000    0.00000   100%   6.0    0s

Cutting planes:
  Gomory: 1
  MIR: 16
  StrongCG: 3
  Zero half: 4

Explored 688 nodes (3056 simplex iterations) in 0.05 seconds
Thread count was 12 (of 12 available processors)

Solution count 10: 94 98 100 ... 154

Optimal solution found (tolerance 1.00e-04)
Best objective 9.400000000000e+01, best bound 9.400000000000e+01, gap 0.0000%
  1.350412 seconds (1.02 M allocations: 50.082 MiB, 0.85% gc time)


 Solution : Optimal


Objective : 94.0
